N = 10;
H = 6;
T = 2;

avail = array3d(1..N, 1..H, 1..T, [4, 9, 10, 1, 0, 10, 6, 1, 5, 0, 1, 6, 7, 1, 8, 8, 7, 9, 4, 2, 7, 0, 5, 4, 10, 0, 9, 9, 3, 2, 4, 4, 4, 10, 1, 10, 10, 1, 3, 7, 5, 9, 1, 1, 9, 10, 5, 8, 1, 10, 3, 5, 0, 2, 4, 9, 7, 1, 10, 1, 6, 1, 4, 6, 5, 6, 1, 0, 1, 8, 6, 0, 3, 3, 7, 1, 4, 4, 7, 3, 7, 0, 10, 1, 0, 7, 4, 6, 5, 0, 0, 1, 5, 2, 5, 1, 4, 2, 10, 3, 7, 6, 2, 5, 6, 10, 5, 5, 5, 6, 2, 5, 6, 7, 7, 2, 9, 10, 4, 4]);

r = array2d(1..H, 1..T, [1, 1, 2, 4, 2, 3, 1, 2, 5, 3, 2, 2]);
